data;

param w := 33;
param n := 23;
param min_h := 33;
param max_h := 53;

set BLOCKS := 1 2 3 4 5 6 7 8 9 10 11 12 13 14 15 16 17 18 19 20 21 22 23 ;

param:	width	height :=
	1	7	33
	2	3	33
	3	3	30
	4	3	24
	5	4	17
	6	4	14
	7	3	17
	8	4	12
	9	3	15
	10	3	14
	11	4	10
	12	3	13
	13	3	10
	14	3	9
	15	4	6
	16	3	8
	17	3	7
	18	3	6
	19	4	4
	20	3	5
	21	4	3
	22	3	4
	23	3	3;